Maximize
  13 x0 - 27 x1 - 12 x2 - 17 x3 + 25 x4 - 33 x5 + 16 x6 - 11 x7 + 31 x8
   + 36 x9 + 0 x10 + 2 x11 - 4 x12 - 46 x13 + 35 x14 - 6 x15 - 12 x16
   - 20 x17 - 12 x18 + 27 x19 - 29 x20 + 0 x21 + 20 x22 + 7 x23 + 6 x24
   + 16 x25 + 16 x26 - 34 x27 + 33 x28 + 29 x29 - 36 x30 + 5 x31 + 0 x32
   - 43 x33 - 38 x34 + 21 x35 - 32 x36 + 3 x37 + x38 - 34 x39 + [ 48 x0 ^2
   + 98 x0 * x1 + 32 x0 * x2 - 20 x0 * x3 - 52 x0 * x4 - 64 x0 * x5
   + 4 x0 * x6 + 78 x0 * x8 - 50 x0 * x9 - 28 x0 * x10 + 94 x0 * x11
   - 38 x0 * x12 - 98 x0 * x13 + 46 x0 * x14 - 14 x0 * x15 - 26 x0 * x16
   + 22 x0 * x17 + 72 x0 * x18 + 52 x0 * x19 - 42 x0 * x20 + 82 x0 * x22
   + 88 x0 * x23 - 26 x0 * x24 - 52 x0 * x25 + 26 x0 * x26 + 78 x0 * x27
   - 22 x0 * x28 - 92 x0 * x29 + 40 x0 * x30 + 50 x0 * x32 + 48 x0 * x33
   + 4 x0 * x34 + 30 x0 * x35 + 56 x0 * x36 + 52 x0 * x37 - 76 x0 * x38
   - 66 x0 * x39 - 48 x1 * x2 + 78 x1 * x3 - 78 x1 * x4 - 28 x1 * x5
   + 70 x1 * x6 - 36 x1 * x8 - 62 x1 * x9 + 72 x1 * x10 + 22 x1 * x11
   - 80 x1 * x12 - 16 x1 * x13 - 2 x1 * x14 + 28 x1 * x15 + 14 x1 * x16
   + 10 x1 * x17 - 50 x1 * x18 - 76 x1 * x19 - 50 x1 * x20 + 88 x1 * x21
   - 54 x1 * x23 - 90 x1 * x24 - 68 x1 * x26 + 58 x1 * x28 + 90 x1 * x29
   - 58 x1 * x30 - 58 x1 * x31 - 80 x1 * x33 - 18 x1 * x34 - 92 x1 * x35
   - 26 x1 * x36 + 54 x1 * x37 - 80 x1 * x38 - 58 x1 * x39 + 48 x2 * x3
   + 58 x2 * x4 - 34 x2 * x5 - 68 x2 * x6 + 90 x2 * x7 + 20 x2 * x8
   + 76 x2 * x9 - 52 x2 * x11 - 22 x2 * x12 - 94 x2 * x13 + 48 x2 * x14
   - 36 x2 * x15 + 30 x2 * x16 + 16 x2 * x17 - 4 x2 * x18 + 16 x2 * x19
   + 2 x2 * x20 - 82 x2 * x21 - 16 x2 * x22 - 74 x2 * x23 - 18 x2 * x24
   - 50 x2 * x25 - 14 x2 * x26 + 76 x2 * x27 - 2 x2 * x29 + 28 x2 * x30
   - 38 x2 * x31 + 54 x2 * x32 - 98 x2 * x33 - 34 x2 * x34 - 32 x2 * x35
   - 82 x2 * x36 - 70 x2 * x37 - 72 x2 * x39 + 10 x3 ^2 + 84 x3 * x4
   - 92 x3 * x5 - 62 x3 * x6 + 94 x3 * x7 + 78 x3 * x8 + 70 x3 * x9
   + 66 x3 * x10 - 24 x3 * x11 - 12 x3 * x12 + 68 x3 * x13 - 58 x3 * x14
   + 54 x3 * x15 + 24 x3 * x17 + 40 x3 * x20 - 30 x3 * x21 - 68 x3 * x22
   + 22 x3 * x23 - 8 x3 * x24 - 26 x3 * x26 - 40 x3 * x27 - 86 x3 * x28
   + 90 x3 * x30 - 12 x3 * x31 - 24 x3 * x32 - 84 x3 * x33 + 58 x3 * x34
   + 88 x3 * x35 + 74 x3 * x37 + 28 x3 * x38 + 30 x3 * x39 + 40 x4 ^2
   - 34 x4 * x5 - 94 x4 * x7 + 76 x4 * x8 + 82 x4 * x9 - 54 x4 * x10
   - 34 x4 * x11 - 26 x4 * x12 - 30 x4 * x13 - 92 x4 * x14 - 40 x4 * x16
   - 90 x4 * x17 - 2 x4 * x19 + 96 x4 * x20 - 28 x4 * x21 - 90 x4 * x22
   + 70 x4 * x23 + 76 x4 * x24 + 60 x4 * x26 + 86 x4 * x28 - 20 x4 * x29
   + 64 x4 * x30 + 54 x4 * x31 - 68 x4 * x32 - 90 x4 * x33 - 2 x4 * x34
   - 74 x4 * x36 + 28 x4 * x37 - 86 x4 * x38 - 26 x4 * x39 + 19 x5 ^2
   + 4 x5 * x6 + 36 x5 * x7 + 72 x5 * x8 + 38 x5 * x10 + 16 x5 * x12
   - 70 x5 * x13 + 66 x5 * x14 - 2 x5 * x15 + 90 x5 * x16 + 22 x5 * x17
   - 18 x5 * x18 + 18 x5 * x19 - 54 x5 * x20 + 62 x5 * x21 - 70 x5 * x22
   - 2 x5 * x23 + 86 x5 * x24 - 44 x5 * x25 - 82 x5 * x26 + 82 x5 * x28
   - 88 x5 * x29 - 12 x5 * x30 + 24 x5 * x31 + 14 x5 * x32 - 26 x5 * x33
   + 42 x5 * x34 - 8 x5 * x35 - 96 x5 * x36 - 42 x5 * x37 - 96 x5 * x38
   + 88 x5 * x39 + 24 x6 ^2 - 20 x6 * x7 - 40 x6 * x8 + 44 x6 * x9
   - 56 x6 * x10 + 46 x6 * x11 - 18 x6 * x12 + 78 x6 * x15 - 74 x6 * x16
   - 76 x6 * x17 + 24 x6 * x18 - 36 x6 * x19 - 8 x6 * x21 - 86 x6 * x22
   - 24 x6 * x24 - 98 x6 * x25 - 48 x6 * x26 - 62 x6 * x28 - 74 x6 * x29
   - 98 x6 * x30 + 22 x6 * x31 + 24 x6 * x32 + 16 x6 * x33 + 88 x6 * x34
   - 88 x6 * x35 - 54 x6 * x36 + 72 x6 * x37 - 62 x6 * x38 + 54 x6 * x39
   - 28 x7 ^2 + 34 x7 * x9 + 92 x7 * x10 + 82 x7 * x11 - 4 x7 * x12
   - 70 x7 * x13 - 14 x7 * x14 + 52 x7 * x15 - 60 x7 * x16 + 32 x7 * x18
   - 98 x7 * x19 - 42 x7 * x20 - 80 x7 * x21 + 32 x7 * x22 - 30 x7 * x23
   + 12 x7 * x26 + 54 x7 * x27 + 82 x7 * x28 - 86 x7 * x30 + 8 x7 * x31
   - 6 x7 * x32 - 98 x7 * x33 + 80 x7 * x34 - 20 x7 * x35 + 74 x7 * x36
   + 96 x7 * x37 + 98 x7 * x38 + 17 x8 ^2 + 96 x8 * x9 + 80 x8 * x11
   + 76 x8 * x12 + 12 x8 * x13 + 86 x8 * x14 - 32 x8 * x15 + 12 x8 * x16
   - 26 x8 * x17 + 4 x8 * x18 - 62 x8 * x19 - 2 x8 * x20 + 32 x8 * x23
   - 14 x8 * x24 + 58 x8 * x26 - 78 x8 * x27 + 98 x8 * x28 + 72 x8 * x29
   - 74 x8 * x30 - 28 x8 * x31 + 4 x8 * x32 - 86 x8 * x33 + 92 x8 * x34
   - 8 x8 * x35 - 24 x8 * x36 + 80 x8 * x38 + 12 x9 ^2 - 32 x9 * x10
   - 16 x9 * x11 - 20 x9 * x12 - 40 x9 * x13 + 90 x9 * x14 + 98 x9 * x16
   + 38 x9 * x18 + 32 x9 * x19 - 68 x9 * x20 - 12 x9 * x21 + 80 x9 * x22
   - 22 x9 * x23 + 60 x9 * x24 - 94 x9 * x25 + 6 x9 * x26 + 70 x9 * x27
   + 38 x9 * x28 + 64 x9 * x29 + 24 x9 * x30 + 34 x9 * x31 + 16 x9 * x32
   + 36 x9 * x33 - 92 x9 * x34 + 40 x9 * x35 + 78 x9 * x36 - 24 x9 * x37
   - 42 x9 * x38 - 70 x9 * x39 + 12 x10 ^2 - 56 x10 * x11 + 12 x10 * x13
   + 60 x10 * x14 - 60 x10 * x16 + 62 x10 * x17 + 80 x10 * x19
   - 80 x10 * x20 + 74 x10 * x21 - 86 x10 * x22 - 86 x10 * x24
   + 52 x10 * x25 + 68 x10 * x26 - 34 x10 * x27 + 68 x10 * x28
   - 82 x10 * x29 - 46 x10 * x31 - 12 x10 * x32 - 80 x10 * x33
   - 90 x10 * x34 - 84 x10 * x36 - 98 x10 * x38 - 46 x10 * x39 - 42 x11 ^2
   + 56 x11 * x12 - 38 x11 * x13 - 60 x11 * x15 + 64 x11 * x17
   + 82 x11 * x19 - 6 x11 * x20 + 74 x11 * x21 + 14 x11 * x23
   - 38 x11 * x25 + 28 x11 * x26 - 26 x11 * x27 - 84 x11 * x28
   + 44 x11 * x29 + 66 x11 * x30 - 32 x11 * x31 - 38 x11 * x32
   - 66 x11 * x33 + 16 x11 * x34 + 12 x11 * x35 + 30 x11 * x36
   - 20 x11 * x37 + 20 x11 * x38 - 9 x12 ^2 + 54 x12 * x13 - 64 x12 * x15
   - 78 x12 * x16 + 22 x12 * x17 + 50 x12 * x18 + 50 x12 * x19
   + 40 x12 * x20 + 86 x12 * x21 - 20 x12 * x22 + 18 x12 * x23
   + 42 x12 * x25 - 20 x12 * x26 - 2 x12 * x27 - 88 x12 * x28
   - 90 x12 * x29 + 12 x12 * x30 + 70 x12 * x31 - 94 x12 * x32
   + 74 x12 * x33 - 12 x12 * x34 - 70 x12 * x35 + 70 x12 * x36
   - 32 x12 * x37 + 70 x12 * x38 - 80 x12 * x39 - 35 x13 ^2 - 38 x13 * x14
   + 30 x13 * x15 - 42 x13 * x17 + 88 x13 * x18 - 72 x13 * x19
   + 64 x13 * x20 - 78 x13 * x21 + 70 x13 * x22 + 90 x13 * x23
   + 8 x13 * x24 + 52 x13 * x25 + 20 x13 * x26 - 46 x13 * x28
   + 76 x13 * x29 + 74 x13 * x30 + 6 x13 * x32 + 22 x13 * x33
   - 26 x13 * x34 + 68 x13 * x35 + 26 x13 * x36 + 78 x13 * x37
   - 20 x13 * x38 + 10 x13 * x39 - 82 x14 * x15 + 26 x14 * x16
   + 86 x14 * x17 - 12 x14 * x18 + 78 x14 * x19 + 18 x14 * x20
   - 14 x14 * x21 - 82 x14 * x22 + 4 x14 * x23 - 68 x14 * x24
   - 50 x14 * x25 - 16 x14 * x27 - 78 x14 * x28 - 42 x14 * x29
   + 40 x14 * x30 - 30 x14 * x31 + 58 x14 * x32 - 12 x14 * x34
   + 12 x14 * x35 - 28 x14 * x37 + 28 x14 * x39 + 22 x15 ^2 + 88 x15 * x17
   - 20 x15 * x18 - 4 x15 * x19 + 6 x15 * x20 - 40 x15 * x21 - 58 x15 * x22
   - 20 x15 * x23 + 34 x15 * x24 - 76 x15 * x25 + 52 x15 * x26
   + 54 x15 * x27 - 56 x15 * x28 + 66 x15 * x29 - 24 x15 * x30
   - 90 x15 * x31 - 8 x15 * x32 - 98 x15 * x33 - 56 x15 * x35
   + 50 x15 * x37 + 46 x15 * x38 + 46 x15 * x39 - 2 x16 ^2 - 94 x16 * x18
   - 90 x16 * x19 + 44 x16 * x20 + 82 x16 * x21 + 36 x16 * x22
   - 94 x16 * x23 + 36 x16 * x24 + 60 x16 * x25 - 90 x16 * x26
   - 2 x16 * x27 - 16 x16 * x28 - 94 x16 * x29 + 54 x16 * x30
   + 56 x16 * x31 - 78 x16 * x32 + 12 x16 * x33 - 94 x16 * x34
   - 14 x16 * x35 - 36 x16 * x36 + 98 x16 * x38 + 4 x16 * x39 + 25 x17 ^2
   + 68 x17 * x18 + 50 x17 * x19 - 34 x17 * x20 + 24 x17 * x21
   + 90 x17 * x22 + 28 x17 * x23 - 90 x17 * x24 - 98 x17 * x25
   - 26 x17 * x26 - 6 x17 * x28 - 78 x17 * x29 - 8 x17 * x31 + 76 x17 * x32
   + 74 x17 * x33 + 92 x17 * x34 - 34 x17 * x35 - 20 x17 * x36
   + 46 x17 * x38 + 90 x17 * x39 - 3 x18 ^2 + 98 x18 * x19 - 32 x18 * x20
   + 98 x18 * x21 - 30 x18 * x22 - 86 x18 * x23 + 82 x18 * x24
   - 14 x18 * x25 + 68 x18 * x26 + 56 x18 * x27 + 80 x18 * x28
   + 78 x18 * x29 + 38 x18 * x30 - 40 x18 * x31 + 80 x18 * x32
   + 74 x18 * x33 - 22 x18 * x34 + 96 x18 * x35 + 60 x18 * x36
   + 82 x18 * x38 - 56 x18 * x39 - 39 x19 ^2 - 28 x19 * x20 + 46 x19 * x21
   - 70 x19 * x22 - 46 x19 * x23 + 38 x19 * x25 + 52 x19 * x27
   + 26 x19 * x29 + 60 x19 * x30 - 78 x19 * x31 - 8 x19 * x32
   - 48 x19 * x33 + 40 x19 * x34 + 50 x19 * x35 - 34 x19 * x36
   + 36 x19 * x37 + 24 x19 * x38 + 36 x19 * x39 - 41 x20 ^2 - 26 x20 * x21
   - 72 x20 * x22 - 76 x20 * x23 + 32 x20 * x24 + 90 x20 * x25
   - 42 x20 * x26 - 88 x20 * x27 + 92 x20 * x28 + 12 x20 * x29
   - 18 x20 * x30 - 8 x20 * x31 + 94 x20 * x32 + 4 x20 * x33 - 68 x20 * x34
   + 38 x20 * x35 - 14 x20 * x36 - 98 x20 * x38 + 64 x20 * x39 + 2 x21 ^2
   - 54 x21 * x22 - 56 x21 * x23 + 54 x21 * x24 + 18 x21 * x25
   - 36 x21 * x27 + 56 x21 * x28 + 38 x21 * x29 + 76 x21 * x30
   - 32 x21 * x31 + 56 x21 * x32 + 38 x21 * x33 - 12 x21 * x34
   + 20 x21 * x35 + 44 x21 * x37 - 4 x21 * x38 - 13 x22 ^2 - 94 x22 * x23
   - 58 x22 * x24 + 18 x22 * x25 - 60 x22 * x26 + 32 x22 * x27
   - 18 x22 * x28 + 82 x22 * x29 - 26 x22 * x30 + 74 x22 * x31
   + 22 x22 * x32 - 32 x22 * x33 + 4 x22 * x35 - 34 x22 * x36
   - 96 x22 * x37 + 46 x22 * x38 + 18 x23 ^2 + 62 x23 * x24 + 84 x23 * x25
   - 12 x23 * x26 - 22 x23 * x27 + 42 x23 * x28 - 78 x23 * x29
   - 42 x23 * x30 + 22 x23 * x32 - 76 x23 * x33 - 14 x23 * x34
   + 86 x23 * x35 + 70 x23 * x36 - 16 x23 * x37 - 32 x23 * x38
   + 20 x23 * x39 + 4 x24 ^2 - 90 x24 * x25 - 72 x24 * x26 - 32 x24 * x27
   + 24 x24 * x28 + 2 x24 * x30 - 48 x24 * x31 - 98 x24 * x32
   + 44 x24 * x33 + 44 x24 * x34 + 68 x24 * x35 - 34 x24 * x36
   + 50 x24 * x37 - 56 x24 * x38 + 24 x24 * x39 + 40 x25 ^2 - 86 x25 * x26
   - 18 x25 * x28 - 52 x25 * x29 - 68 x25 * x30 - 28 x25 * x33
   + 72 x25 * x34 - 4 x25 * x35 + 64 x25 * x36 + 70 x25 * x37
   - 32 x25 * x38 + 36 x25 * x39 - 92 x26 * x27 + 90 x26 * x28
   + 12 x26 * x29 + 62 x26 * x30 - 54 x26 * x31 - 82 x26 * x32
   - 78 x26 * x34 - 56 x26 * x35 - 88 x26 * x36 + 26 x26 * x37
   + 20 x26 * x38 + 8 x26 * x39 - 22 x27 ^2 - 94 x27 * x28 + 80 x27 * x29
   - 30 x27 * x30 - 96 x27 * x31 + 58 x27 * x32 - 72 x27 * x33
   + 64 x27 * x34 - 62 x27 * x35 + 18 x27 * x36 + 12 x27 * x37
   + 38 x27 * x38 - 96 x27 * x39 + 38 x28 ^2 - 40 x28 * x30 + 6 x28 * x31
   + 56 x28 * x32 + 48 x28 * x33 + 20 x28 * x34 + 84 x28 * x35
   + 34 x28 * x37 - 90 x28 * x38 - 96 x28 * x39 + 41 x29 ^2 - 12 x29 * x30
   + 52 x29 * x31 + 60 x29 * x32 - 46 x29 * x33 + 98 x29 * x34
   - 80 x29 * x35 + 96 x29 * x37 + 68 x29 * x39 - 38 x30 ^2 - 42 x30 * x31
   + 86 x30 * x33 + 42 x30 * x35 + 28 x30 * x36 - 14 x30 * x37
   + 24 x30 * x38 + 74 x30 * x39 - 27 x31 ^2 - 70 x31 * x32 + 14 x31 * x33
   + 80 x31 * x34 - 58 x31 * x35 - 12 x31 * x36 - 4 x31 * x37
   + 56 x31 * x38 + 36 x31 * x39 + 6 x32 ^2 - 46 x32 * x33 - 26 x32 * x34
   + 40 x32 * x35 - 60 x32 * x36 + 78 x32 * x38 - 48 x32 * x39 - 12 x33 ^2
   - 40 x33 * x35 + 18 x33 * x36 - 66 x33 * x37 + 38 x33 * x38
   + 36 x33 * x39 - 19 x34 ^2 + 50 x34 * x35 - 24 x34 * x36 - 54 x34 * x37
   - 8 x34 * x38 + 35 x35 ^2 - 90 x35 * x37 - 36 x35 * x38 + 36 x35 * x39
   - 36 x36 ^2 - 94 x36 * x37 - 10 x36 * x38 + 72 x36 * x39 + 70 x37 * x38
   - 90 x37 * x39 - 44 x38 ^2 + 34 x38 * x39 + 40 x39 ^2 ] / 2 
Subject To
Bounds
 x0 <= 1
 x1 <= 1
 x2 <= 1
 x3 <= 1
 x4 <= 1
 x5 <= 1
 x6 <= 1
 x7 <= 1
 x8 <= 1
 x9 <= 1
 x10 <= 1
 x11 <= 1
 x12 <= 1
 x13 <= 1
 x14 <= 1
 x15 <= 1
 x16 <= 1
 x17 <= 1
 x18 <= 1
 x19 <= 1
 x20 <= 1
 x21 <= 1
 x22 <= 1
 x23 <= 1
 x24 <= 1
 x25 <= 1
 x26 <= 1
 x27 <= 1
 x28 <= 1
 x29 <= 1
 x30 <= 1
 x31 <= 1
 x32 <= 1
 x33 <= 1
 x34 <= 1
 x35 <= 1
 x36 <= 1
 x37 <= 1
 x38 <= 1
 x39 <= 1
End
